benchmarks_CP/INST_36x36/35/inst36x36_35_36.dzn
S=6;
start=[|
-1,	19,	-1,	-1,	24,	9,	-1,	-1,	1,	-1,	-1,	22,	-1,	-1,	-1,	-1,	35,	-1,	-1,	-1,	-1,	-1,	-1,	-1,	-1,	-1,	-1,	-1,	-1,	16,	-1,	-1,	33,	-1,	-1,	18|
-1,	-1,	22,	-1,	2,	18,	34,	-1,	-1,	-1,	-1,	-1,	-1,	-1,	-1,	-1,	-1,	-1,	-1,	-1,	-1,	-1,	7,	28,	4,	3,	8,	-1,	14,	-1,	9,	-1,	-1,	-1,	23,	15|
30,	32,	-1,	-1,	-1,	7,	-1,	-1,	19,	12,	35,	-1,	-1,	-1,	8,	33,	-1,	-1,	-1,	-1,	1,	-1,	15,	9,	-1,	17,	34,	-1,	27,	-1,	-1,	-1,	-1,	-1,	-1,	10|
-1,	-1,	-1,	-1,	-1,	-1,	31,	-1,	11,	-1,	-1,	-1,	14,	-1,	-1,	5,	25,	4,	-1,	-1,	-1,	-1,	16,	6,	-1,	-1,	-1,	24,	13,	21,	-1,	12,	28,	-1,	8,	-1|
17,	-1,	33,	-1,	-1,	-1,	25,	26,	15,	-1,	10,	-1,	27,	-1,	-1,	-1,	24,	-1,	-1,	-1,	11,	-1,	32,	30,	-1,	-1,	-1,	-1,	-1,	6,	-1,	-1,	-1,	-1,	-1,	-1|
10,	-1,	-1,	28,	-1,	6,	7,	13,	-1,	-1,	-1,	-1,	-1,	-1,	-1,	2,	-1,	-1,	-1,	-1,	-1,	-1,	29,	-1,	-1,	-1,	31,	-1,	-1,	32,	-1,	-1,	-1,	21,	34,	-1|
-1,	22,	34,	9,	-1,	-1,	-1,	14,	-1,	-1,	3,	-1,	-1,	-1,	19,	-1,	-1,	12,	15,	-1,	7,	-1,	-1,	35,	32,	-1,	10,	-1,	-1,	-1,	36,	-1,	-1,	-1,	-1,	-1|
-1,	10,	-1,	2,	-1,	-1,	12,	4,	-1,	7,	-1,	-1,	28,	-1,	23,	31,	-1,	-1,	21,	-1,	26,	-1,	-1,	-1,	-1,	18,	-1,	14,	11,	-1,	-1,	19,	-1,	17,	-1,	9|
-1,	-1,	28,	-1,	-1,	-1,	-1,	-1,	-1,	-1,	-1,	-1,	-1,	18,	10,	29,	-1,	32,	-1,	-1,	5,	-1,	1,	19,	-1,	-1,	-1,	33,	-1,	-1,	-1,	-1,	-1,	-1,	-1,	-1|
6,	-1,	24,	18,	12,	13,	11,	17,	25,	-1,	-1,	10,	-1,	-1,	-1,	-1,	-1,	35,	29,	-1,	27,	-1,	-1,	36,	-1,	-1,	-1,	-1,	7,	19,	-1,	-1,	-1,	-1,	-1,	-1|
26,	4,	20,	15,	32,	-1,	-1,	28,	-1,	-1,	27,	-1,	-1,	-1,	14,	-1,	-1,	-1,	25,	-1,	-1,	-1,	-1,	-1,	-1,	29,	-1,	36,	-1,	-1,	34,	10,	-1,	23,	-1,	6|
-1,	-1,	-1,	-1,	-1,	-1,	-1,	-1,	-1,	19,	-1,	-1,	-1,	25,	-1,	17,	-1,	-1,	9,	6,	-1,	-1,	-1,	-1,	3,	-1,	28,	16,	22,	-1,	-1,	-1,	-1,	-1,	-1,	7|
14,	-1,	-1,	-1,	-1,	-1,	26,	-1,	35,	-1,	12,	-1,	-1,	-1,	27,	25,	-1,	-1,	-1,	-1,	-1,	-1,	34,	29,	-1,	-1,	11,	28,	-1,	36,	31,	-1,	-1,	-1,	-1,	-1|
-1,	-1,	-1,	-1,	5,	10,	-1,	-1,	-1,	1,	-1,	-1,	19,	28,	-1,	-1,	33,	15,	-1,	-1,	-1,	-1,	26,	16,	30,	-1,	-1,	-1,	-1,	-1,	11,	27,	18,	13,	21,	-1|
-1,	-1,	-1,	-1,	-1,	15,	29,	-1,	-1,	-1,	-1,	-1,	21,	-1,	16,	-1,	32,	-1,	-1,	3,	19,	25,	-1,	-1,	8,	-1,	-1,	-1,	-1,	-1,	-1,	28,	36,	33,	9,	-1|
-1,	23,	-1,	-1,	-1,	28,	-1,	-1,	-1,	4,	-1,	-1,	-1,	13,	-1,	9,	30,	29,	36,	-1,	-1,	2,	-1,	10,	-1,	19,	-1,	5,	1,	20,	-1,	-1,	-1,	-1,	-1,	34|
-1,	-1,	17,	-1,	-1,	-1,	8,	-1,	-1,	-1,	-1,	21,	10,	4,	11,	-1,	23,	14,	6,	-1,	-1,	-1,	-1,	-1,	26,	-1,	16,	-1,	3,	-1,	-1,	2,	7,	5,	15,	-1|
-1,	-1,	-1,	-1,	9,	16,	-1,	-1,	-1,	-1,	32,	-1,	-1,	34,	7,	12,	22,	-1,	-1,	-1,	-1,	-1,	-1,	-1,	-1,	2,	17,	-1,	-1,	35,	-1,	-1,	-1,	-1,	-1,	1|
-1,	-1,	-1,	19,	-1,	-1,	-1,	-1,	-1,	-1,	8,	-1,	4,	-1,	22,	-1,	2,	-1,	33,	-1,	-1,	18,	-1,	-1,	-1,	13,	-1,	-1,	12,	-1,	-1,	-1,	-1,	15,	-1,	-1|
-1,	-1,	-1,	-1,	-1,	14,	27,	-1,	-1,	29,	1,	-1,	-1,	-1,	-1,	28,	-1,	-1,	11,	-1,	-1,	-1,	-1,	-1,	10,	-1,	24,	-1,	21,	-1,	-1,	-1,	-1,	-1,	26,	-1|
-1,	15,	4,	-1,	-1,	1,	-1,	-1,	-1,	24,	7,	-1,	-1,	30,	21,	-1,	-1,	23,	-1,	-1,	-1,	-1,	-1,	-1,	-1,	-1,	25,	-1,	8,	-1,	12,	6,	11,	-1,	-1,	-1|
-1,	-1,	3,	23,	7,	-1,	-1,	19,	-1,	-1,	-1,	-1,	-1,	-1,	-1,	-1,	12,	-1,	10,	-1,	-1,	8,	-1,	-1,	-1,	4,	-1,	-1,	36,	-1,	-1,	13,	-1,	-1,	-1,	-1|
20,	-1,	-1,	-1,	-1,	-1,	10,	-1,	-1,	34,	-1,	4,	-1,	-1,	18,	-1,	31,	-1,	-1,	-1,	21,	-1,	-1,	3,	14,	-1,	-1,	-1,	-1,	-1,	-1,	-1,	-1,	2,	-1,	-1|
-1,	9,	13,	-1,	-1,	31,	-1,	16,	-1,	-1,	-1,	-1,	25,	-1,	-1,	-1,	-1,	-1,	26,	-1,	-1,	-1,	-1,	-1,	27,	-1,	-1,	3,	29,	-1,	-1,	32,	-1,	-1,	-1,	-1|
-1,	-1,	-1,	-1,	-1,	-1,	36,	-1,	-1,	9,	17,	-1,	-1,	-1,	4,	-1,	-1,	3,	13,	-1,	-1,	-1,	-1,	-1,	7,	24,	5,	8,	33,	-1,	30,	-1,	-1,	22,	-1,	35|
4,	-1,	-1,	-1,	26,	-1,	13,	-1,	-1,	32,	14,	35,	16,	-1,	-1,	-1,	-1,	36,	-1,	-1,	-1,	-1,	-1,	17,	19,	-1,	3,	-1,	20,	-1,	-1,	-1,	9,	-1,	-1,	27|
-1,	-1,	-1,	36,	17,	-1,	23,	8,	28,	-1,	-1,	25,	-1,	-1,	-1,	-1,	34,	-1,	-1,	-1,	-1,	-1,	-1,	-1,	-1,	-1,	35,	-1,	6,	-1,	-1,	11,	-1,	10,	-1,	-1|
-1,	-1,	32,	-1,	10,	-1,	22,	21,	7,	20,	-1,	-1,	-1,	-1,	9,	30,	-1,	-1,	16,	-1,	-1,	23,	3,	27,	18,	-1,	14,	-1,	-1,	1,	-1,	-1,	34,	-1,	-1,	-1|
-1,	-1,	27,	12,	-1,	-1,	16,	-1,	4,	-1,	5,	-1,	24,	-1,	-1,	-1,	18,	-1,	-1,	1,	-1,	19,	8,	33,	-1,	-1,	36,	-1,	-1,	-1,	-1,	-1,	-1,	-1,	14,	-1|
-1,	-1,	8,	-1,	-1,	22,	-1,	-1,	12,	26,	-1,	27,	-1,	29,	-1,	19,	17,	-1,	-1,	35,	-1,	-1,	-1,	5,	-1,	-1,	-1,	-1,	-1,	4,	-1,	31,	-1,	36,	18,	-1|
-1,	34,	-1,	1,	-1,	-1,	-1,	-1,	-1,	15,	4,	-1,	-1,	-1,	6,	-1,	-1,	-1,	-1,	-1,	-1,	-1,	-1,	-1,	-1,	-1,	-1,	19,	-1,	-1,	-1,	-1,	8,	27,	-1,	-1|
-1,	-1,	31,	-1,	23,	-1,	-1,	-1,	14,	2,	24,	34,	-1,	19,	12,	-1,	-1,	7,	-1,	-1,	-1,	16,	28,	25,	-1,	-1,	-1,	-1,	26,	-1,	22,	4,	10,	9,	-1,	5|
-1,	-1,	-1,	-1,	20,	32,	-1,	-1,	-1,	30,	-1,	19,	-1,	3,	33,	-1,	10,	-1,	-1,	-1,	-1,	-1,	-1,	-1,	-1,	12,	-1,	22,	-1,	-1,	2,	-1,	1,	-1,	-1,	31|
-1,	36,	5,	-1,	-1,	-1,	6,	-1,	-1,	25,	-1,	-1,	-1,	-1,	-1,	-1,	-1,	-1,	-1,	-1,	10,	-1,	4,	-1,	-1,	14,	1,	-1,	23,	-1,	-1,	-1,	-1,	-1,	-1,	-1|
7,	13,	10,	11,	22,	-1,	-1,	-1,	8,	-1,	26,	-1,	-1,	-1,	-1,	14,	28,	25,	-1,	19,	-1,	-1,	-1,	-1,	-1,	36,	30,	-1,	-1,	-1,	21,	20,	-1,	-1,	-1,	-1|
-1,	-1,	-1,	17,	-1,	-1,	-1,	-1,	-1,	-1,	11,	-1,	-1,	5,	-1,	-1,	4,	-1,	-1,	-1,	-1,	-1,	9,	2,	-1,	21,	-1,	-1,	-1,	31,	-1,	3,	19,	30,	28,	-1|];
